c This is an instance of the exact track of PACE 2020 Challenge, see https://pacechallenge.org/2020/ 
c TYPE: generated 
c ORIGIN: Python networkx package 
c DESCRIPTION: A random cubic graph generated using random_regular_graph function from Python’s networkx package 
p tdp 180 270
1 2
1 111
1 169
2 76
2 134
3 4
3 30
3 145
4 118
4 168
5 6
5 142
5 77
6 16
6 173
7 8
7 22
7 111
8 69
8 109
9 10
9 137
9 144
10 15
10 151
11 12
11 23
11 135
12 89
12 146
13 14
13 132
13 147
14 106
14 171
15 80
15 131
16 17
16 108
17 75
17 38
18 19
18 91
18 79
19 100
19 160
20 21
20 82
20 125
21 84
21 156
22 74
22 141
23 136
23 102
24 25
24 114
24 123
25 81
25 50
26 27
26 90
26 159
27 79
27 54
28 29
28 62
28 56
29 121
29 117
30 31
30 87
31 128
31 144
32 33
32 120
32 172
33 101
33 36
34 35
34 88
34 87
35 95
35 75
36 37
36 149
37 81
37 148
38 39
38 46
39 80
39 92
40 41
40 133
40 85
41 115
41 43
42 43
42 139
42 175
43 86
44 45
44 104
44 144
45 55
45 64
46 47
46 100
47 147
47 157
48 49
48 143
48 68
49 60
49 114
50 51
50 77
51 105
51 180
52 53
52 56
52 99
53 93
53 162
54 55
54 112
55 142
56 57
57 157
57 89
58 59
58 132
58 130
59 145
59 146
60 141
60 172
61 62
61 122
61 69
62 96
63 64
63 90
63 115
64 165
65 66
65 103
65 177
66 93
66 78
67 68
67 167
67 158
68 119
69 143
70 71
70 109
70 172
71 174
71 175
72 73
72 74
72 91
73 110
73 121
74 114
75 123
76 77
76 149
78 79
78 142
80 81
82 123
82 105
83 84
83 92
83 111
84 99
85 86
85 113
86 158
87 122
88 180
88 98
89 119
90 168
91 93
92 178
94 95
94 119
94 166
95 132
96 97
96 140
97 127
97 170
98 99
98 100
101 138
101 128
102 103
102 112
103 177
104 133
104 179
105 106
106 118
107 108
107 124
107 152
108 129
109 160
110 120
110 140
112 155
113 153
113 149
115 130
116 117
116 137
116 176
117 152
118 154
120 180
121 173
122 139
124 125
124 151
125 179
126 127
126 135
126 178
127 140
128 150
129 135
129 155
130 131
131 146
133 134
134 152
136 162
136 163
137 157
138 139
138 170
141 167
143 168
145 154
147 161
148 161
148 150
150 162
151 165
153 159
153 166
154 163
155 156
156 179
158 159
160 167
161 174
163 169
164 165
164 173
164 176
166 176
169 175
170 171
171 177
174 178
